(declare-fun conv.i.i.i.i_9_219 () (_ BitVec 32))
(declare-fun phi.bo_9_221 () (_ BitVec 32))
(declare-fun i.i.i.i.i.i.neg_9_218 () (_ BitVec 32))
(declare-fun num.4.i.i.i.i.i_9_215 () (_ BitVec 32))
(declare-fun word.addr.4.lobit.i.i.i.i.i.neg_9_217 () (_ BitVec 64))
(declare-fun word.addr.4.i.i.i.i.i_9_214 () (_ BitVec 64))
(declare-fun num.3.i.i.i.i.i_9_207 () (_ BitVec 32))
(declare-fun sub22.i.i.i.i.i_9_211 () (_ BitVec 32))
(declare-fun tobool20.not.i.i.i.i.i_9_209 () (_ BitVec 1))
(declare-fun word.addr.3.i.i.i.i.i_9_206 () (_ BitVec 64))
(declare-fun shl23.i.i.i.i.i_9_213 () (_ BitVec 64))
(declare-fun num.2.i.i.i.i.i_9_199 () (_ BitVec 32))
(declare-fun sub16.i.i.i.i.i_9_203 () (_ BitVec 32))
(declare-fun tobool14.not.i.i.i.i.i_9_201 () (_ BitVec 1))
(declare-fun word.addr.2.i.i.i.i.i_9_198 () (_ BitVec 64))
(declare-fun shl17.i.i.i.i.i_9_205 () (_ BitVec 64))
(declare-fun num.1.i.i.i.i.i_9_191 () (_ BitVec 32))
(declare-fun sub10.i.i.i.i.i_9_195 () (_ BitVec 32))
(declare-fun tobool8.not.i.i.i.i.i_9_193 () (_ BitVec 1))
(declare-fun word.addr.1.i.i.i.i.i_9_190 () (_ BitVec 64))
(declare-fun shl11.i.i.i.i.i_9_197 () (_ BitVec 64))
(declare-fun spec.select17.i.i.i.i.i_9_183 () (_ BitVec 32))
(declare-fun sub4.i.i.i.i.i_9_187 () (_ BitVec 32))
(declare-fun tobool2.not.i.i.i.i.i_9_185 () (_ BitVec 1))
(declare-fun spec.select.i.i.i.i.i_9_180 () (_ BitVec 64))
(declare-fun shl5.i.i.i.i.i_9_189 () (_ BitVec 64))
(declare-fun tobool.not.i.i.i.i.i_9_177 () (_ BitVec 1))
(declare-fun xor.i.i.i_9_173 () (_ BitVec 64))
(declare-fun shl.i.i.i.i.i_9_179 () (_ BitVec 64))
(declare-fun cmp63.i_9_71 () (_ BitVec 1))
(declare-fun cmp.i246.i_9_109 () (_ BitVec 1))
(declare-fun cmp1.i248.i_9_112 () (_ BitVec 1))
(declare-fun cmp21.i.i_9_122 () (_ BitVec 1))
(declare-fun cmp40.i.i_9_127 () (_ BitVec 1))
(declare-fun cmp.i.i.i.i_9_175 () (_ BitVec 1))
(declare-fun dst_reg_9_160 () (_ BitVec 32))
(declare-fun dst_reg_9_86 () (_ BitVec 32))
(declare-fun dst_reg_9_159 () (_ BitVec 64))
(declare-fun storemerge20_9_97 () (_ BitVec 64))
(declare-fun dst_reg_9_158 () (_ BitVec 64))
(declare-fun dst_reg_9_84 () (_ BitVec 64))
(declare-fun dst_reg_9_157 () (_ BitVec 64))
(declare-fun dst_reg_9_83 () (_ BitVec 64))
(declare-fun dst_reg_9_156 () (_ BitVec 64))
(declare-fun dst_reg_9_82 () (_ BitVec 64))
(declare-fun dst_reg_9_155 () (_ BitVec 64))
(declare-fun or6.i.i_9_103 () (_ BitVec 64))
(declare-fun dst_reg_9_154 () (_ BitVec 64))
(declare-fun and.i55.i_9_106 () (_ BitVec 64))
(declare-fun dst_reg_9_153 () (_ BitVec 32))
(declare-fun dst_reg_9_79 () (_ BitVec 32))
(declare-fun dst_reg_9_152 () (_ BitVec 32))
(declare-fun dst_reg_9_78 () (_ BitVec 32))
(declare-fun dst_reg_9_151 () (_ BitVec 32))
(declare-fun dst_reg_9_77 () (_ BitVec 32))
(declare-fun src_reg_9_170 () (_ BitVec 32))
(declare-fun src_reg_9_96 () (_ BitVec 32))
(declare-fun src_reg_9_169 () (_ BitVec 64))
(declare-fun src_reg_9_95 () (_ BitVec 64))
(declare-fun src_reg_9_168 () (_ BitVec 64))
(declare-fun src_reg_9_94 () (_ BitVec 64))
(declare-fun src_reg_9_167 () (_ BitVec 64))
(declare-fun src_reg_9_93 () (_ BitVec 64))
(declare-fun src_reg_9_166 () (_ BitVec 64))
(declare-fun src_reg_9_92 () (_ BitVec 64))
(declare-fun src_reg_9_165 () (_ BitVec 64))
(declare-fun src_reg_9_91 () (_ BitVec 64))
(declare-fun src_reg_9_164 () (_ BitVec 64))
(declare-fun src_reg_9_90 () (_ BitVec 64))
(declare-fun src_reg_9_163 () (_ BitVec 32))
(declare-fun src_reg_9_89 () (_ BitVec 32))
(declare-fun src_reg_9_162 () (_ BitVec 32))
(declare-fun src_reg_9_88 () (_ BitVec 32))
(declare-fun src_reg_9_161 () (_ BitVec 32))
(declare-fun src_reg_9_87 () (_ BitVec 32))
(declare-fun dst_reg_9_139 () (_ BitVec 32))
(declare-fun dst_reg_9_138 () (_ BitVec 64))
(declare-fun dst_reg_9_137 () (_ BitVec 64))
(declare-fun i28.i.i.sink_9_150 () (_ BitVec 64))
(declare-fun dst_reg_9_135 () (_ BitVec 64))
(declare-fun dst_reg_9_134 () (_ BitVec 64))
(declare-fun dst_reg_9_133 () (_ BitVec 64))
(declare-fun dst_reg_9_132 () (_ BitVec 32))
(declare-fun dst_reg_9_131 () (_ BitVec 32))
(declare-fun dst_reg_9_130 () (_ BitVec 32))
(declare-fun src_reg_9_149 () (_ BitVec 32))
(declare-fun src_reg_9_148 () (_ BitVec 64))
(declare-fun src_reg_9_147 () (_ BitVec 64))
(declare-fun src_reg_9_146 () (_ BitVec 64))
(declare-fun src_reg_9_145 () (_ BitVec 64))
(declare-fun src_reg_9_144 () (_ BitVec 64))
(declare-fun src_reg_9_143 () (_ BitVec 64))
(declare-fun src_reg_9_142 () (_ BitVec 32))
(declare-fun src_reg_9_141 () (_ BitVec 32))
(declare-fun src_reg_9_140 () (_ BitVec 32))
(declare-fun i.i253.i_9_171 () (_ BitVec 64))
(declare-fun i5.i255.i_9_172 () (_ BitVec 64))
(declare-fun cond17.i.i_9_119 () (_ BitVec 64))
(declare-fun cond36.i.i_9_125 () (_ BitVec 64))
(declare-fun i28.i.i_9_120 () (_ BitVec 64))
(declare-fun cond53.i.i_9_129 () (_ BitVec 64))
(declare-fun dst_reg_9_136 () (_ BitVec 64))
(declare-fun i29.i.i_9_123 () (_ BitVec 64))
(declare-fun cond.i250.i_9_115 () (_ BitVec 64))
(declare-fun i24.i.i_9_110 () (_ BitVec 64))
(declare-fun storemerge_9_70 () (_ BitVec 64))
(declare-fun sub72.i_9_76 () (_ BitVec 64))
(declare-fun dst_reg_9_9 () (_ BitVec 32))
(declare-fun dst_reg_9_85 () (_ BitVec 64))
(declare-fun cond46.i.i.i_9_46 () (_ BitVec 64))
(declare-fun sub70.i_9_75 () (_ BitVec 64))
(declare-fun storemerge19_9_68 () (_ BitVec 64))
(declare-fun dst_reg_9_81 () (_ BitVec 64))
(declare-fun and6.i.i.i_9_33 () (_ BitVec 64))
(declare-fun dst_reg_9_80 () (_ BitVec 64))
(declare-fun and.i.i.i_9_31 () (_ BitVec 64))
(declare-fun dst_reg_9_2 () (_ BitVec 32))
(declare-fun dst_reg_9_1 () (_ BitVec 32))
(declare-fun src_reg_9_19 () (_ BitVec 32))
(declare-fun src_reg_9_18 () (_ BitVec 64))
(declare-fun src_reg_9_17 () (_ BitVec 64))
(declare-fun src_reg_9_16 () (_ BitVec 64))
(declare-fun src_reg_9_15 () (_ BitVec 64))
(declare-fun src_reg_9_14 () (_ BitVec 64))
(declare-fun src_reg_9_13 () (_ BitVec 64))
(declare-fun src_reg_9_12 () (_ BitVec 32))
(declare-fun src_reg_9_11 () (_ BitVec 32))
(declare-fun i.i245.i_9_107 () (_ BitVec 64))
(declare-fun neg.i54.i_9_105 () (_ BitVec 64))
(declare-fun sub.i50.i_9_98 () (_ BitVec 64))
(declare-fun xor.i52.i_9_101 () (_ BitVec 64))
(declare-fun or.i53.i_9_102 () (_ BitVec 64))
(declare-fun and6.i.i6.i_9_50 () (_ BitVec 64))
(declare-fun sub3.i.i_9_100 () (_ BitVec 64))
(declare-fun add.i51.i_9_99 () (_ BitVec 64))
(declare-fun and.i.i5.i_9_48 () (_ BitVec 64))
(declare-fun cmp48.i.i_9_128 () (_ BitVec 1))
(declare-fun cond31.i.i28.i_9_74 () (_ BitVec 64))
(declare-fun cond46.i.i33.i_9_57 () (_ BitVec 64))
(declare-fun cond31.i.i.i_9_43 () (_ BitVec 64))
(declare-fun src_reg1.sroa.21.0.copyload_9_24 () (_ BitVec 64))
(declare-fun cmp26.i.i27.i_9_73 () (_ BitVec 1))
(declare-fun cmp31.i.i_9_124 () (_ BitVec 1))
(declare-fun i27.i.i_9_117 () (_ BitVec 64))
(declare-fun i26.i.i_9_116 () (_ BitVec 64))
(declare-fun cmp12.i.i_9_118 () (_ BitVec 1))
(declare-fun i25.i.i_9_113 () (_ BitVec 64))
(declare-fun cmp4.i.i_9_114 () (_ BitVec 1))
(declare-fun src_reg_9_261 () (_ BitVec 32))
(declare-fun src_reg_9_260 () (_ BitVec 64))
(declare-fun src_reg_9_259 () (_ BitVec 64))
(declare-fun src_reg_9_258 () (_ BitVec 64))
(declare-fun src_reg_9_257 () (_ BitVec 64))
(declare-fun src_reg_9_256 () (_ BitVec 64))
(declare-fun src_reg_9_255 () (_ BitVec 64))
(declare-fun src_reg_9_254 () (_ BitVec 32))
(declare-fun src_reg_9_253 () (_ BitVec 32))
(declare-fun src_reg_9_252 () (_ BitVec 32))
(declare-fun dst_reg_9_251 () (_ BitVec 32))
(declare-fun dst_reg_9_250 () (_ BitVec 64))
(declare-fun dst_reg_9_249 () (_ BitVec 64))
(declare-fun dst_reg_9_248 () (_ BitVec 64))
(declare-fun dst_reg_9_247 () (_ BitVec 64))
(declare-fun dst_reg_9_246 () (_ BitVec 64))
(declare-fun and.i1.i260.i_9_236 () (_ BitVec 64))
(declare-fun dst_reg_9_245 () (_ BitVec 64))
(declare-fun and4.i.i.i_9_239 () (_ BitVec 64))
(declare-fun dst_reg_9_244 () (_ BitVec 32))
(declare-fun dst_reg_9_243 () (_ BitVec 32))
(declare-fun dst_reg_9_242 () (_ BitVec 32))
(declare-fun retval.0.i.i.i.i_9_222 () (_ BitVec 32))
(declare-fun neg.i.i.i_9_238 () (_ BitVec 64))
(declare-fun or.i.i259.i_9_235 () (_ BitVec 64))
(declare-fun retval.sroa.3.0.i.i.i_9_234 () (_ BitVec 64))
(declare-fun retval.sroa.0.0.i.i.i_9_232 () (_ BitVec 64))
(declare-fun sub.i.i.i_9_229 () (_ BitVec 64))
(declare-fun cmp.i.i.i_9_224 () (_ BitVec 1))
(declare-fun and.i.i256.i_9_230 () (_ BitVec 64))
(declare-fun notmask.i.i.i_9_227 () (_ BitVec 64))
(declare-fun sh_prom.i.i.i_9_225 () (_ BitVec 64))
(declare-fun sub.i45.i_9_64 () (_ BitVec 64))
(declare-fun or.cond_9_66 () (_ BitVec 1))
(declare-fun sub.i.i_9_58 () (_ BitVec 64))
(declare-fun cmp2.i48.i_9_65 () (_ BitVec 1))
(declare-fun retval.0.i44.i_9_63 () (_ BitVec 1))
(declare-fun cond19.i.i.i_9_40 () (_ BitVec 64))
(declare-fun cond.i.i18.i_9_52 () (_ BitVec 64))
(declare-fun cmp2.i43.i_9_62 () (_ BitVec 1))
(declare-fun cmp1.i42.i_9_61 () (_ BitVec 1))
(declare-fun cmp.i41.i_9_60 () (_ BitVec 1))
(declare-fun cond.i.i.i_9_36 () (_ BitVec 64))
(declare-fun cond19.i.i24.i_9_55 () (_ BitVec 64))
(declare-fun or10.i.i22.i_9_53 () (_ BitVec 64))
(declare-fun src_reg1.sroa.24.0.copyload_9_25 () (_ BitVec 64))
(declare-fun cmp41.i.i32.i_9_56 () (_ BitVec 1))
(declare-fun src_reg1.sroa.18.0.copyload_9_23 () (_ BitVec 64))
(declare-fun cmp14.i.i23.i_9_54 () (_ BitVec 1))
(declare-fun src_reg1.sroa.15.0.copyload_9_22 () (_ BitVec 64))
(declare-fun cmp2.i.i17.i_9_51 () (_ BitVec 1))
(declare-fun src_reg1.sroa.11.0.copyload_9_26 () (_ BitVec 64))
(declare-fun src_reg1.sroa.3.0.copyload_9_27 () (_ BitVec 64))
(declare-fun or10.i.i.i_9_38 () (_ BitVec 64))
(declare-fun i19.i.i.i_9_44 () (_ BitVec 64))
(declare-fun cmp41.i.i.i_9_45 () (_ BitVec 1))
(declare-fun dst_reg_9_8 () (_ BitVec 64))
(declare-fun i18.i.i.i_9_41 () (_ BitVec 64))
(declare-fun cmp26.i.i.i_9_42 () (_ BitVec 1))
(declare-fun dst_reg_9_7 () (_ BitVec 64))
(declare-fun i17.i.i.i_9_37 () (_ BitVec 64))
(declare-fun cmp14.i.i.i_9_39 () (_ BitVec 1))
(declare-fun dst_reg_9_6 () (_ BitVec 64))
(declare-fun i.i.i.i_9_34 () (_ BitVec 64))
(declare-fun cmp2.i.i.i_9_35 () (_ BitVec 1))
(declare-fun dst_reg_9_5 () (_ BitVec 64))
(declare-fun i6.i.i_9_29 () (_ BitVec 64))
(declare-fun i4.i.i_9_28 () (_ BitVec 64))
(declare-fun dst_reg_9_4 () (_ BitVec 64))
(declare-fun dst_reg_9_3 () (_ BitVec 64))
(declare-fun src_reg_9_10 () (_ BitVec 32))
(declare-fun dst_reg_9_0 () (_ BitVec 32))
(assert (let ((a!1 (and (= cmp.i246.i_9_109 #b0)
                (or (= cmp63.i_9_71 #b0) (= cmp63.i_9_71 #b1))))
      (a!10 (=> (= cmp63.i_9_71 #b0)
                (and (ite (bvugt src_reg1.sroa.21.0.copyload_9_24
                                 and.i.i5.i_9_48)
                          (= cmp26.i.i27.i_9_73 #b1)
                          (= cmp26.i.i27.i_9_73 #b0))
                     (ite (= cmp26.i.i27.i_9_73 #b1)
                          (= cond31.i.i28.i_9_74
                             src_reg1.sroa.21.0.copyload_9_24)
                          (= cond31.i.i28.i_9_74 and.i.i5.i_9_48))
                     (= sub70.i_9_75
                        (bvsub cond31.i.i.i_9_43 cond46.i.i33.i_9_57))
                     (= sub72.i_9_76
                        (bvsub cond46.i.i.i_9_46 cond31.i.i28.i_9_74)))))
      (a!13 (and (= sub.i50.i_9_98 (bvsub and.i.i.i_9_31 and.i.i5.i_9_48))
                 (= add.i51.i_9_99 (bvadd sub.i50.i_9_98 and6.i.i.i_9_33))
                 (= sub3.i.i_9_100 (bvsub sub.i50.i_9_98 and6.i.i6.i_9_50))
                 (= xor.i52.i_9_101 (bvxor add.i51.i_9_99 sub3.i.i_9_100))
                 (= or.i53.i_9_102 (bvor and6.i.i.i_9_33 and6.i.i6.i_9_50))
                 (= or6.i.i_9_103 (bvor or.i53.i_9_102 xor.i52.i_9_101))
                 (= neg.i54.i_9_105 (bvxor or6.i.i_9_103 #xffffffffffffffff))
                 (= and.i55.i_9_106 (bvand sub.i50.i_9_98 neg.i54.i_9_105))
                 (= storemerge19_9_68 i.i245.i_9_107)
                 (ite (bvsgt i.i245.i_9_107 #xffffffffffffffff)
                      (= cmp.i246.i_9_109 #b1)
                      (= cmp.i246.i_9_109 #b0))
                 (=> (= cmp63.i_9_71 #b1)
                     (and (= #x00000001 src_reg_9_87)
                          (= src_reg_9_11 src_reg_9_88)
                          (= src_reg_9_12 src_reg_9_89)
                          (= src_reg_9_13 src_reg_9_90)
                          (= src_reg_9_14 src_reg_9_91)
                          (= src_reg_9_15 src_reg_9_92)
                          (= src_reg_9_16 src_reg_9_93)
                          (= src_reg_9_17 src_reg_9_94)
                          (= src_reg_9_18 src_reg_9_95)
                          (= src_reg_9_19 src_reg_9_96)
                          (= #x00000001 dst_reg_9_77)
                          (= dst_reg_9_1 dst_reg_9_78)
                          (= dst_reg_9_2 dst_reg_9_79)
                          (= and.i.i.i_9_31 dst_reg_9_80)
                          (= and6.i.i.i_9_33 dst_reg_9_81)
                          (= storemerge19_9_68 dst_reg_9_82)
                          (= storemerge_9_70 dst_reg_9_83)
                          (= #x0000000000000000 dst_reg_9_84)
                          (= cond46.i.i.i_9_46 dst_reg_9_85)
                          (= dst_reg_9_9 dst_reg_9_86)))
                 (=> (= cmp63.i_9_71 #b0)
                     (and (= #x00000001 src_reg_9_87)
                          (= src_reg_9_11 src_reg_9_88)
                          (= src_reg_9_12 src_reg_9_89)
                          (= src_reg_9_13 src_reg_9_90)
                          (= src_reg_9_14 src_reg_9_91)
                          (= src_reg_9_15 src_reg_9_92)
                          (= src_reg_9_16 src_reg_9_93)
                          (= src_reg_9_17 src_reg_9_94)
                          (= src_reg_9_18 src_reg_9_95)
                          (= src_reg_9_19 src_reg_9_96)
                          (= #x00000001 dst_reg_9_77)
                          (= dst_reg_9_1 dst_reg_9_78)
                          (= dst_reg_9_2 dst_reg_9_79)
                          (= and.i.i.i_9_31 dst_reg_9_80)
                          (= and6.i.i.i_9_33 dst_reg_9_81)
                          (= storemerge19_9_68 dst_reg_9_82)
                          (= storemerge_9_70 dst_reg_9_83)
                          (= sub70.i_9_75 dst_reg_9_84)
                          (= cond46.i.i.i_9_46 dst_reg_9_85)
                          (= dst_reg_9_9 dst_reg_9_86)))
                 (=> (= cmp63.i_9_71 #b0) (= storemerge20_9_97 sub72.i_9_76))
                 (=> (= cmp63.i_9_71 #b1)
                     (= storemerge20_9_97 #xffffffffffffffff)))))
(let ((a!2 (and (= cmp40.i.i_9_127 #b1)
                (and (= cmp21.i.i_9_122 #b0)
                     (and (= cmp1.i248.i_9_112 #b0) a!1))))
      (a!3 (or (and (= cmp1.i248.i_9_112 #b1) a!1)
               (and (= cmp.i246.i_9_109 #b1)
                    (or (= cmp63.i_9_71 #b0) (= cmp63.i_9_71 #b1)))))
      (a!5 (and (= cmp40.i.i_9_127 #b0)
                (and (= cmp21.i.i_9_122 #b0)
                     (and (= cmp1.i248.i_9_112 #b0) a!1))))
      (a!9 (=> (and (= cmp21.i.i_9_122 #b1) (and (= cmp1.i248.i_9_112 #b0) a!1))
               (and (ite (bvult i24.i.i_9_110 i28.i.i_9_120)
                         (= cmp31.i.i_9_124 #b1)
                         (= cmp31.i.i_9_124 #b0))
                    (ite (= cmp31.i.i_9_124 #b1)
                         (= cond36.i.i_9_125 i24.i.i_9_110)
                         (= cond36.i.i_9_125 i28.i.i_9_120)))))
      (a!11 (=> (and (= cmp1.i248.i_9_112 #b0) a!1)
                (and (= storemerge20_9_97 i28.i.i_9_120)
                     (ite (bvsgt i28.i.i_9_120 #xffffffffffffffff)
                          (= cmp21.i.i_9_122 #b1)
                          (= cmp21.i.i_9_122 #b0))
                     (= dst_reg_9_84 i29.i.i_9_123))))
      (a!14 (=> (and (= cmp21.i.i_9_122 #b0)
                     (and (= cmp1.i248.i_9_112 #b0) a!1))
                (and (ite (bvslt i29.i.i_9_123 #x0000000000000000)
                          (= cmp40.i.i_9_127 #b1)
                          (= cmp40.i.i_9_127 #b0)))))
      (a!15 (=> a!1
                (and (= storemerge_9_70 i24.i.i_9_110)
                     (ite (bvslt i24.i.i_9_110 #x0000000000000000)
                          (= cmp1.i248.i_9_112 #b1)
                          (= cmp1.i248.i_9_112 #b0)))))
      (a!16 (=> (and (= cmp21.i.i_9_122 #b1)
                     (and (= cmp1.i248.i_9_112 #b0) a!1))
                (and (= src_reg_9_87 src_reg_9_140)
                     (= src_reg_9_88 src_reg_9_141)
                     (= src_reg_9_89 src_reg_9_142)
                     (= src_reg_9_90 src_reg_9_143)
                     (= src_reg_9_91 src_reg_9_144)
                     (= src_reg_9_92 src_reg_9_145)
                     (= src_reg_9_93 src_reg_9_146)
                     (= src_reg_9_94 src_reg_9_147)
                     (= src_reg_9_95 src_reg_9_148)
                     (= src_reg_9_96 src_reg_9_149)
                     (= dst_reg_9_77 dst_reg_9_130)
                     (= dst_reg_9_78 dst_reg_9_131)
                     (= dst_reg_9_79 dst_reg_9_132)
                     (= and.i55.i_9_106 dst_reg_9_133)
                     (= or6.i.i_9_103 dst_reg_9_134)
                     (= i29.i.i_9_123 dst_reg_9_135)
                     (= dst_reg_9_83 dst_reg_9_136)
                     (= dst_reg_9_84 dst_reg_9_137)
                     (= cond36.i.i_9_125 dst_reg_9_138)
                     (= dst_reg_9_86 dst_reg_9_139))))
      (a!17 (=> (and (= cmp21.i.i_9_122 #b1)
                     (and (= cmp1.i248.i_9_112 #b0) a!1))
                (= i28.i.i.sink_9_150 cond36.i.i_9_125))))
(let ((a!4 (or a!2
               (and (= cmp21.i.i_9_122 #b1) (and (= cmp1.i248.i_9_112 #b0) a!1))
               a!3))
      (a!8 (=> a!3
               (and (= dst_reg_9_84 i25.i.i_9_113)
                    (ite (bvugt i.i245.i_9_107 i25.i.i_9_113)
                         (= cmp4.i.i_9_114 #b1)
                         (= cmp4.i.i_9_114 #b0))
                    (ite (= cmp4.i.i_9_114 #b1)
                         (= cond.i250.i_9_115 i.i245.i_9_107)
                         (= cond.i250.i_9_115 i25.i.i_9_113))
                    (= storemerge_9_70 i26.i.i_9_116)
                    (= storemerge20_9_97 i27.i.i_9_117)
                    (ite (bvult i26.i.i_9_116 i27.i.i_9_117)
                         (= cmp12.i.i_9_118 #b1)
                         (= cmp12.i.i_9_118 #b0))
                    (ite (= cmp12.i.i_9_118 #b1)
                         (= cond17.i.i_9_119 i26.i.i_9_116)
                         (= cond17.i.i_9_119 i27.i.i_9_117)))))
      (a!12 (=> a!2
                (and (ite (bvugt i.i245.i_9_107 i29.i.i_9_123)
                          (= cmp48.i.i_9_128 #b1)
                          (= cmp48.i.i_9_128 #b0))
                     (ite (= cmp48.i.i_9_128 #b1)
                          (= cond53.i.i_9_129 i.i245.i_9_107)
                          (= cond53.i.i_9_129 i29.i.i_9_123)))))
      (a!18 (and (=> a!3
                     (and (= src_reg_9_87 src_reg_9_140)
                          (= src_reg_9_88 src_reg_9_141)
                          (= src_reg_9_89 src_reg_9_142)
                          (= src_reg_9_90 src_reg_9_143)
                          (= src_reg_9_91 src_reg_9_144)
                          (= src_reg_9_92 src_reg_9_145)
                          (= src_reg_9_93 src_reg_9_146)
                          (= src_reg_9_94 src_reg_9_147)
                          (= src_reg_9_95 src_reg_9_148)
                          (= src_reg_9_96 src_reg_9_149)
                          (= dst_reg_9_77 dst_reg_9_130)
                          (= dst_reg_9_78 dst_reg_9_131)
                          (= dst_reg_9_79 dst_reg_9_132)
                          (= and.i55.i_9_106 dst_reg_9_133)
                          (= or6.i.i_9_103 dst_reg_9_134)
                          (= cond.i250.i_9_115 dst_reg_9_135)
                          (= dst_reg_9_83 dst_reg_9_136)
                          (= cond.i250.i_9_115 dst_reg_9_137)
                          (= cond17.i.i_9_119 dst_reg_9_138)
                          (= dst_reg_9_86 dst_reg_9_139)))
                 a!16
                 (=> a!2
                     (and (= src_reg_9_87 src_reg_9_140)
                          (= src_reg_9_88 src_reg_9_141)
                          (= src_reg_9_89 src_reg_9_142)
                          (= src_reg_9_90 src_reg_9_143)
                          (= src_reg_9_91 src_reg_9_144)
                          (= src_reg_9_92 src_reg_9_145)
                          (= src_reg_9_93 src_reg_9_146)
                          (= src_reg_9_94 src_reg_9_147)
                          (= src_reg_9_95 src_reg_9_148)
                          (= src_reg_9_96 src_reg_9_149)
                          (= dst_reg_9_77 dst_reg_9_130)
                          (= dst_reg_9_78 dst_reg_9_131)
                          (= dst_reg_9_79 dst_reg_9_132)
                          (= and.i55.i_9_106 dst_reg_9_133)
                          (= or6.i.i_9_103 dst_reg_9_134)
                          (= cond53.i.i_9_129 dst_reg_9_135)
                          (= dst_reg_9_83 dst_reg_9_136)
                          (= cond53.i.i_9_129 dst_reg_9_137)
                          (= storemerge20_9_97 dst_reg_9_138)
                          (= dst_reg_9_86 dst_reg_9_139)))
                 (=> a!2 (= i28.i.i.sink_9_150 i28.i.i_9_120))
                 a!17
                 (=> a!3 (= i28.i.i.sink_9_150 cond17.i.i_9_119)))))
(let ((a!6 (and (ite (bvugt retval.0.i.i.i.i_9_222 #x0000003f)
                     (= cmp.i.i.i_9_224 #b1)
                     (= cmp.i.i.i_9_224 #b0))
                (= sh_prom.i.i.i_9_225
                   ((_ zero_extend 32) retval.0.i.i.i.i_9_222))
                (= notmask.i.i.i_9_227
                   (bvshl #xffffffffffffffff sh_prom.i.i.i_9_225))
                (= sub.i.i.i_9_229
                   (bvxor notmask.i.i.i_9_227 #xffffffffffffffff))
                (= and.i.i256.i_9_230
                   (bvand notmask.i.i.i_9_227 i.i253.i_9_171))
                (ite (= cmp.i.i.i_9_224 #b1)
                     (= retval.sroa.0.0.i.i.i_9_232 #x0000000000000000)
                     (= retval.sroa.0.0.i.i.i_9_232 and.i.i256.i_9_230))
                (ite (= cmp.i.i.i_9_224 #b1)
                     (= retval.sroa.3.0.i.i.i_9_234 #xffffffffffffffff)
                     (= retval.sroa.3.0.i.i.i_9_234 sub.i.i.i_9_229))
                (= or.i.i259.i_9_235
                   (bvor retval.sroa.0.0.i.i.i_9_232 and.i55.i_9_106))
                (= and.i1.i260.i_9_236
                   (bvand retval.sroa.3.0.i.i.i_9_234 or6.i.i_9_103))
                (= neg.i.i.i_9_238
                   (bvxor and.i1.i260.i_9_236 #xffffffffffffffff))
                (= and4.i.i.i_9_239 (bvand or.i.i259.i_9_235 neg.i.i.i_9_238))
                (=> (and (= cmp.i.i.i.i_9_175 #b0) (or a!4 a!5))
                    (= retval.0.i.i.i.i_9_222 phi.bo_9_221))
                (=> (and (= cmp.i.i.i.i_9_175 #b1) (or a!4 a!5))
                    (= retval.0.i.i.i.i_9_222 #x00000000))
                (= dst_reg_9_151 dst_reg_9_242)
                (= dst_reg_9_152 dst_reg_9_243)
                (= dst_reg_9_153 dst_reg_9_244)
                (= and4.i.i.i_9_239 dst_reg_9_245)
                (= and.i1.i260.i_9_236 dst_reg_9_246)
                (= dst_reg_9_156 dst_reg_9_247)
                (= dst_reg_9_157 dst_reg_9_248)
                (= dst_reg_9_158 dst_reg_9_249)
                (= dst_reg_9_159 dst_reg_9_250)
                (= dst_reg_9_160 dst_reg_9_251)
                (= src_reg_9_161 src_reg_9_252)
                (= src_reg_9_162 src_reg_9_253)
                (= src_reg_9_163 src_reg_9_254)
                (= src_reg_9_164 src_reg_9_255)
                (= src_reg_9_165 src_reg_9_256)
                (= src_reg_9_166 src_reg_9_257)
                (= src_reg_9_167 src_reg_9_258)
                (= src_reg_9_168 src_reg_9_259)
                (= src_reg_9_169 src_reg_9_260)
                (= src_reg_9_170 src_reg_9_261)))
      (a!19 (and (= dst_reg_9_158 i.i253.i_9_171)
                 (= dst_reg_9_159 i5.i255.i_9_172)
                 (= xor.i.i.i_9_173 (bvxor i5.i255.i_9_172 i.i253.i_9_171))
                 (ite (= xor.i.i.i_9_173 #x0000000000000000)
                      (= cmp.i.i.i.i_9_175 #b1)
                      (= cmp.i.i.i.i_9_175 #b0))
                 (=> a!4
                     (and (= src_reg_9_140 src_reg_9_161)
                          (= src_reg_9_141 src_reg_9_162)
                          (= src_reg_9_142 src_reg_9_163)
                          (= src_reg_9_143 src_reg_9_164)
                          (= src_reg_9_144 src_reg_9_165)
                          (= src_reg_9_145 src_reg_9_166)
                          (= src_reg_9_146 src_reg_9_167)
                          (= src_reg_9_147 src_reg_9_168)
                          (= src_reg_9_148 src_reg_9_169)
                          (= src_reg_9_149 src_reg_9_170)
                          (= dst_reg_9_130 dst_reg_9_151)
                          (= dst_reg_9_131 dst_reg_9_152)
                          (= dst_reg_9_132 dst_reg_9_153)
                          (= dst_reg_9_133 dst_reg_9_154)
                          (= dst_reg_9_134 dst_reg_9_155)
                          (= dst_reg_9_135 dst_reg_9_156)
                          (= i28.i.i.sink_9_150 dst_reg_9_157)
                          (= dst_reg_9_137 dst_reg_9_158)
                          (= dst_reg_9_138 dst_reg_9_159)
                          (= dst_reg_9_139 dst_reg_9_160)))
                 (=> a!5
                     (and (= src_reg_9_87 src_reg_9_161)
                          (= src_reg_9_88 src_reg_9_162)
                          (= src_reg_9_89 src_reg_9_163)
                          (= src_reg_9_90 src_reg_9_164)
                          (= src_reg_9_91 src_reg_9_165)
                          (= src_reg_9_92 src_reg_9_166)
                          (= src_reg_9_93 src_reg_9_167)
                          (= src_reg_9_94 src_reg_9_168)
                          (= src_reg_9_95 src_reg_9_169)
                          (= src_reg_9_96 src_reg_9_170)
                          (= dst_reg_9_77 dst_reg_9_151)
                          (= dst_reg_9_78 dst_reg_9_152)
                          (= dst_reg_9_79 dst_reg_9_153)
                          (= and.i55.i_9_106 dst_reg_9_154)
                          (= or6.i.i_9_103 dst_reg_9_155)
                          (= dst_reg_9_82 dst_reg_9_156)
                          (= dst_reg_9_83 dst_reg_9_157)
                          (= dst_reg_9_84 dst_reg_9_158)
                          (= storemerge20_9_97 dst_reg_9_159)
                          (= dst_reg_9_86 dst_reg_9_160)))))
      (a!20 (=> (and (= cmp.i.i.i.i_9_175 #b0) (or a!4 a!5))
                (and (ite (bvult xor.i.i.i_9_173 #x0000000100000000)
                          (= tobool.not.i.i.i.i.i_9_177 #b1)
                          (= tobool.not.i.i.i.i.i_9_177 #b0))
                     (= shl.i.i.i.i.i_9_179
                        (bvshl xor.i.i.i_9_173 #x0000000000000020))
                     (ite (= tobool.not.i.i.i.i.i_9_177 #b1)
                          (= spec.select.i.i.i.i.i_9_180 shl.i.i.i.i.i_9_179)
                          (= spec.select.i.i.i.i.i_9_180 xor.i.i.i_9_173))
                     (ite (= tobool.not.i.i.i.i.i_9_177 #b1)
                          (= spec.select17.i.i.i.i.i_9_183 #x0000001f)
                          (= spec.select17.i.i.i.i.i_9_183 #x0000003f))
                     (ite (bvult spec.select.i.i.i.i.i_9_180 #x0001000000000000)
                          (= tobool2.not.i.i.i.i.i_9_185 #b1)
                          (= tobool2.not.i.i.i.i.i_9_185 #b0))
                     (= sub4.i.i.i.i.i_9_187
                        (bvadd spec.select17.i.i.i.i.i_9_183 #xfffffff0))
                     (= shl5.i.i.i.i.i_9_189
                        (bvshl spec.select.i.i.i.i.i_9_180 #x0000000000000010))
                     (ite (= tobool2.not.i.i.i.i.i_9_185 #b1)
                          (= word.addr.1.i.i.i.i.i_9_190 shl5.i.i.i.i.i_9_189)
                          (= word.addr.1.i.i.i.i.i_9_190
                             spec.select.i.i.i.i.i_9_180))
                     (ite (= tobool2.not.i.i.i.i.i_9_185 #b1)
                          (= num.1.i.i.i.i.i_9_191 sub4.i.i.i.i.i_9_187)
                          (= num.1.i.i.i.i.i_9_191
                             spec.select17.i.i.i.i.i_9_183))
                     (ite (bvult word.addr.1.i.i.i.i.i_9_190 #x0100000000000000)
                          (= tobool8.not.i.i.i.i.i_9_193 #b1)
                          (= tobool8.not.i.i.i.i.i_9_193 #b0))
                     (= sub10.i.i.i.i.i_9_195
                        (bvadd num.1.i.i.i.i.i_9_191 #xfffffff8))
                     (= shl11.i.i.i.i.i_9_197
                        (bvshl word.addr.1.i.i.i.i.i_9_190 #x0000000000000008))
                     (ite (= tobool8.not.i.i.i.i.i_9_193 #b1)
                          (= word.addr.2.i.i.i.i.i_9_198 shl11.i.i.i.i.i_9_197)
                          (= word.addr.2.i.i.i.i.i_9_198
                             word.addr.1.i.i.i.i.i_9_190))
                     (ite (= tobool8.not.i.i.i.i.i_9_193 #b1)
                          (= num.2.i.i.i.i.i_9_199 sub10.i.i.i.i.i_9_195)
                          (= num.2.i.i.i.i.i_9_199 num.1.i.i.i.i.i_9_191))
                     (ite (bvult word.addr.2.i.i.i.i.i_9_198 #x1000000000000000)
                          (= tobool14.not.i.i.i.i.i_9_201 #b1)
                          (= tobool14.not.i.i.i.i.i_9_201 #b0))
                     (= sub16.i.i.i.i.i_9_203
                        (bvadd num.2.i.i.i.i.i_9_199 #xfffffffc))
                     (= shl17.i.i.i.i.i_9_205
                        (bvshl word.addr.2.i.i.i.i.i_9_198 #x0000000000000004))
                     (ite (= tobool14.not.i.i.i.i.i_9_201 #b1)
                          (= word.addr.3.i.i.i.i.i_9_206 shl17.i.i.i.i.i_9_205)
                          (= word.addr.3.i.i.i.i.i_9_206
                             word.addr.2.i.i.i.i.i_9_198))
                     (ite (= tobool14.not.i.i.i.i.i_9_201 #b1)
                          (= num.3.i.i.i.i.i_9_207 sub16.i.i.i.i.i_9_203)
                          (= num.3.i.i.i.i.i_9_207 num.2.i.i.i.i.i_9_199))
                     (ite (bvult word.addr.3.i.i.i.i.i_9_206 #x4000000000000000)
                          (= tobool20.not.i.i.i.i.i_9_209 #b1)
                          (= tobool20.not.i.i.i.i.i_9_209 #b0))
                     (= sub22.i.i.i.i.i_9_211
                        (bvadd num.3.i.i.i.i.i_9_207 #x000000fe))
                     (= shl23.i.i.i.i.i_9_213
                        (bvshl word.addr.3.i.i.i.i.i_9_206 #x0000000000000002))
                     (ite (= tobool20.not.i.i.i.i.i_9_209 #b1)
                          (= word.addr.4.i.i.i.i.i_9_214 shl23.i.i.i.i.i_9_213)
                          (= word.addr.4.i.i.i.i.i_9_214
                             word.addr.3.i.i.i.i.i_9_206))
                     (ite (= tobool20.not.i.i.i.i.i_9_209 #b1)
                          (= num.4.i.i.i.i.i_9_215 sub22.i.i.i.i.i_9_211)
                          (= num.4.i.i.i.i.i_9_215 num.3.i.i.i.i.i_9_207))
                     (= word.addr.4.lobit.i.i.i.i.i.neg_9_217
                        (bvlshr word.addr.4.i.i.i.i.i_9_214 #x000000000000003f))
                     (= i.i.i.i.i.i.neg_9_218
                        ((_ extract 31 0) word.addr.4.lobit.i.i.i.i.i.neg_9_217))
                     (= conv.i.i.i.i_9_219
                        (bvadd num.4.i.i.i.i.i_9_215 i.i.i.i.i.i.neg_9_218))
                     (= phi.bo_9_221 (bvand conv.i.i.i.i_9_219 #x000000ff))))))
(let ((a!7 (=> (or (and (= cmp.i.i.i.i_9_175 #b0) (or a!4 a!5))
                   (and (= cmp.i.i.i.i_9_175 #b1) (or a!4 a!5)))
               a!6)))
  (and (= dst_reg_9_0 dst_reg_9_0)
       (= dst_reg_9_1 dst_reg_9_1)
       (= dst_reg_9_2 dst_reg_9_2)
       (= dst_reg_9_3 dst_reg_9_3)
       (= dst_reg_9_4 dst_reg_9_4)
       (= dst_reg_9_5 dst_reg_9_5)
       (= dst_reg_9_6 dst_reg_9_6)
       (= dst_reg_9_7 dst_reg_9_7)
       (= dst_reg_9_8 dst_reg_9_8)
       (= dst_reg_9_9 dst_reg_9_9)
       (= src_reg_9_10 src_reg_9_10)
       (= src_reg_9_11 src_reg_9_11)
       (= src_reg_9_12 src_reg_9_12)
       (= src_reg_9_13 src_reg_9_13)
       (= src_reg_9_14 src_reg_9_14)
       (= src_reg_9_15 src_reg_9_15)
       (= src_reg_9_16 src_reg_9_16)
       (= src_reg_9_17 src_reg_9_17)
       (= src_reg_9_18 src_reg_9_18)
       (= src_reg_9_19 src_reg_9_19)
       (= src_reg_9_15 src_reg1.sroa.15.0.copyload_9_22)
       (= src_reg_9_16 src_reg1.sroa.18.0.copyload_9_23)
       (= src_reg_9_17 src_reg1.sroa.21.0.copyload_9_24)
       (= src_reg_9_18 src_reg1.sroa.24.0.copyload_9_25)
       (= src_reg_9_14 src_reg1.sroa.11.0.copyload_9_26)
       (= src_reg_9_13 src_reg1.sroa.3.0.copyload_9_27)
       (= dst_reg_9_3 i4.i.i_9_28)
       (= dst_reg_9_4 i6.i.i_9_29)
       (= and.i.i.i_9_31 (bvand i4.i.i_9_28 #x00000000ffffffff))
       (= and6.i.i.i_9_33 (bvand i6.i.i_9_29 #x00000000ffffffff))
       (= dst_reg_9_5 i.i.i.i_9_34)
       (ite (bvsgt i.i.i.i_9_34 and.i.i.i_9_31)
            (= cmp2.i.i.i_9_35 #b1)
            (= cmp2.i.i.i_9_35 #b0))
       (ite (= cmp2.i.i.i_9_35 #b1)
            (= cond.i.i.i_9_36 i.i.i.i_9_34)
            (= cond.i.i.i_9_36 and.i.i.i_9_31))
       (= dst_reg_9_6 i17.i.i.i_9_37)
       (= or10.i.i.i_9_38 (bvor and6.i.i.i_9_33 and.i.i.i_9_31))
       (ite (bvslt i17.i.i.i_9_37 or10.i.i.i_9_38)
            (= cmp14.i.i.i_9_39 #b1)
            (= cmp14.i.i.i_9_39 #b0))
       (ite (= cmp14.i.i.i_9_39 #b1)
            (= cond19.i.i.i_9_40 i17.i.i.i_9_37)
            (= cond19.i.i.i_9_40 or10.i.i.i_9_38))
       (= dst_reg_9_7 i18.i.i.i_9_41)
       (ite (bvugt i18.i.i.i_9_41 and.i.i.i_9_31)
            (= cmp26.i.i.i_9_42 #b1)
            (= cmp26.i.i.i_9_42 #b0))
       (ite (= cmp26.i.i.i_9_42 #b1)
            (= cond31.i.i.i_9_43 i18.i.i.i_9_41)
            (= cond31.i.i.i_9_43 and.i.i.i_9_31))
       (= dst_reg_9_8 i19.i.i.i_9_44)
       (ite (bvult i19.i.i.i_9_44 or10.i.i.i_9_38)
            (= cmp41.i.i.i_9_45 #b1)
            (= cmp41.i.i.i_9_45 #b0))
       (ite (= cmp41.i.i.i_9_45 #b1)
            (= cond46.i.i.i_9_46 i19.i.i.i_9_44)
            (= cond46.i.i.i_9_46 or10.i.i.i_9_38))
       (= and.i.i5.i_9_48
          (bvand src_reg1.sroa.3.0.copyload_9_27 #x00000000ffffffff))
       (= and6.i.i6.i_9_50
          (bvand src_reg1.sroa.11.0.copyload_9_26 #x00000000ffffffff))
       (ite (bvsgt src_reg1.sroa.15.0.copyload_9_22 and.i.i5.i_9_48)
            (= cmp2.i.i17.i_9_51 #b1)
            (= cmp2.i.i17.i_9_51 #b0))
       (ite (= cmp2.i.i17.i_9_51 #b1)
            (= cond.i.i18.i_9_52 src_reg1.sroa.15.0.copyload_9_22)
            (= cond.i.i18.i_9_52 and.i.i5.i_9_48))
       (= or10.i.i22.i_9_53 (bvor and.i.i5.i_9_48 and6.i.i6.i_9_50))
       (ite (bvslt src_reg1.sroa.18.0.copyload_9_23 or10.i.i22.i_9_53)
            (= cmp14.i.i23.i_9_54 #b1)
            (= cmp14.i.i23.i_9_54 #b0))
       (ite (= cmp14.i.i23.i_9_54 #b1)
            (= cond19.i.i24.i_9_55 src_reg1.sroa.18.0.copyload_9_23)
            (= cond19.i.i24.i_9_55 or10.i.i22.i_9_53))
       (ite (bvult src_reg1.sroa.24.0.copyload_9_25 or10.i.i22.i_9_53)
            (= cmp41.i.i32.i_9_56 #b1)
            (= cmp41.i.i32.i_9_56 #b0))
       (ite (= cmp41.i.i32.i_9_56 #b1)
            (= cond46.i.i33.i_9_57 src_reg1.sroa.24.0.copyload_9_25)
            (= cond46.i.i33.i_9_57 or10.i.i22.i_9_53))
       (= sub.i.i_9_58 (bvsub cond.i.i.i_9_36 cond19.i.i24.i_9_55))
       (ite (bvslt cond19.i.i24.i_9_55 #x0000000000000000)
            (= cmp.i41.i_9_60 #b1)
            (= cmp.i41.i_9_60 #b0))
       (ite (bvslt sub.i.i_9_58 cond.i.i.i_9_36)
            (= cmp1.i42.i_9_61 #b1)
            (= cmp1.i42.i_9_61 #b0))
       (ite (bvsgt sub.i.i_9_58 cond.i.i.i_9_36)
            (= cmp2.i43.i_9_62 #b1)
            (= cmp2.i43.i_9_62 #b0))
       (ite (= cmp.i41.i_9_60 #b1)
            (= retval.0.i44.i_9_63 cmp1.i42.i_9_61)
            (= retval.0.i44.i_9_63 cmp2.i43.i_9_62))
       (= sub.i45.i_9_64 (bvsub cond19.i.i.i_9_40 cond.i.i18.i_9_52))
       (ite (bvsgt sub.i45.i_9_64 cond19.i.i.i_9_40)
            (= cmp2.i48.i_9_65 #b1)
            (= cmp2.i48.i_9_65 #b0))
       (= or.cond_9_66 (bvor retval.0.i44.i_9_63 cmp2.i48.i_9_65))
       (ite (= or.cond_9_66 #b1)
            (= storemerge19_9_68 #x8000000000000000)
            (= storemerge19_9_68 sub.i.i_9_58))
       (ite (= or.cond_9_66 #b1)
            (= storemerge_9_70 #x7fffffffffffffff)
            (= storemerge_9_70 sub.i45.i_9_64))
       (ite (bvult cond31.i.i.i_9_43 cond46.i.i33.i_9_57)
            (= cmp63.i_9_71 #b1)
            (= cmp63.i_9_71 #b0))
       a!7
       a!8
       a!9
       a!10
       a!11
       a!12
       (=> (or (= cmp63.i_9_71 #b0) (= cmp63.i_9_71 #b1)) a!13)
       a!14
       a!15
       (=> a!4 a!18)
       (=> (or a!4 a!5) a!19)
       a!20)))))))

;{"dst_reg":["dst_reg_9_0",[""],"dst_reg_9_1","dst_reg_9_2",["dst_reg_9_3","dst_reg_9_4"],"dst_reg_9_5","dst_reg_9_6","dst_reg_9_7","dst_reg_9_8","dst_reg_9_9"],"src_reg":["src_reg_9_10",[""],"src_reg_9_11","src_reg_9_12",["src_reg_9_13","src_reg_9_14"],"src_reg_9_15","src_reg_9_16","src_reg_9_17","src_reg_9_18","src_reg_9_19"]}
;{"dst_reg":["dst_reg_9_242",[""],"dst_reg_9_243","dst_reg_9_244",["dst_reg_9_245","dst_reg_9_246"],"dst_reg_9_247","dst_reg_9_248","dst_reg_9_249","dst_reg_9_250","dst_reg_9_251"],"src_reg":["src_reg_9_252",[""],"src_reg_9_253","src_reg_9_254",["src_reg_9_255","src_reg_9_256"],"src_reg_9_257","src_reg_9_258","src_reg_9_259","src_reg_9_260","src_reg_9_261"]}
